TCS_Benchmarks/redos_fix/regexlib2_output_distinct_1079_1078_0_0.smt2
(set-logic QF_S)
(declare-const x String)
(assert (str.in.re x (re.inter  (re.++  (re.union  (re.range "\u{30}" "\u{39}")  (re.++ (re.range "\u{30}" "\u{39}")   (re.range "\u{30}" "\u{39}")))  (re.++ (re.range "\u{41}" "\u{5a}") (re.range "\u{41}" "\u{5a}")))  (re.++  (re.union  (re.range "\u{30}" "\u{39}")  (re.++ (re.range "\u{30}" "\u{39}")   (re.range "\u{30}" "\u{39}"))) (re.++  (re.++ (re.opt (re.union (re.range "\u{09}" "\u{0d}") (re.range "\u{20}" "\u{20}") (re.range "\u{85}" "\u{85}") (re.range "\u{a0}" "\u{a0}")) ) (re.range "\u{30}" "\u{39}"))  (re.++ (re.range "\u{41}" "\u{5a}") (re.range "\u{41}" "\u{5a}")))) )))
(check-sat)
(get-model)