TCS_Benchmarks/redos_fix/regexlib2_output_distinct_1079_1078_0_0.txt
([0-9]{1,2})([A-Z]{2})
([0-9]{1,2})(\s?[0-9])([A-Z]{2})